(set-info :smt-lib-version 2.6)
(set-logic QF_ALIA)
(set-info :notes "Adapted for Array Sum evaluation.
Base file: qlock.induction.19.smt2")
(set-info :source |
Unbounded version of the queue lock algorithm.
|)
(set-info :category "industrial")
(declare-fun x_0 () (Array Int Int))
(declare-fun x_1 () Int)
(declare-fun x_2 () Int)
(declare-fun x_3 () (Array Int Int))
(declare-fun x_4 () (Array Int Int))
(declare-fun x_5 () (Array Int Int))
(declare-fun x_6 () (Array Int Int))
(declare-fun x_7 () (Array Int Int))
(declare-fun x_8 () (Array Int Int))
(declare-fun x_9 () (Array Int Int))
(declare-fun x_10 () (Array Int Int))
(declare-fun x_11 () (Array Int Int))
(declare-fun x_12 () (Array Int Int))
(declare-fun x_13 () (Array Int Int))
(declare-fun x_14 () (Array Int Int))
(declare-fun x_15 () (Array Int Int))
(declare-fun x_16 () (Array Int Int))
(declare-fun x_17 () (Array Int Int))
(declare-fun x_18 () (Array Int Int))
(declare-fun x_19 () (Array Int Int))
(declare-fun x_20 () (Array Int Int))
(declare-fun x_21 () (Array Int Int))
(declare-fun x_22 () Int)
(declare-fun x_23 () Int)
(declare-fun x_24 () (Array Int Int))
(declare-fun x_25 () Int)
(declare-fun x_26 () Bool)
(declare-fun x_27 () Bool)
(declare-fun x_28 () Int)
(declare-fun x_29 () Int)
(declare-fun x_30 () Int)
(declare-fun x_31 () Int)
(declare-fun x_32 () Int)
(declare-fun x_33 () Int)
(declare-fun x_34 () Int)
(declare-fun x_35 () Int)
(declare-fun x_36 () Int)
(declare-fun x_37 () Int)
(declare-fun x_38 () Int)
(declare-fun x_39 () Int)
(declare-fun x_40 () (Array Int Int))
(declare-fun x_41 () Int)
(declare-fun x_42 () Bool)
(declare-fun x_43 () Int)
(declare-fun x_44 () Int)
(declare-fun x_45 () Int)
(declare-fun x_46 () Int)
(declare-fun x_47 () Int)
(declare-fun x_48 () Int)
(declare-fun x_49 () Int)
(declare-fun x_50 () Int)
(declare-fun x_51 () Int)
(declare-fun x_52 () Int)
(declare-fun x_53 () (Array Int Int))
(declare-fun x_54 () Int)
(declare-fun x_55 () Bool)
(declare-fun x_56 () Int)
(declare-fun x_57 () Int)
(declare-fun x_58 () Int)
(declare-fun x_59 () Int)
(declare-fun x_60 () Int)
(declare-fun x_61 () Int)
(declare-fun x_62 () Int)
(declare-fun x_63 () Int)
(declare-fun x_64 () Int)
(declare-fun x_65 () Int)
(declare-fun x_66 () (Array Int Int))
(declare-fun x_67 () Int)
(declare-fun x_68 () Bool)
(declare-fun x_69 () Int)
(declare-fun x_70 () Int)
(declare-fun x_71 () Int)
(declare-fun x_72 () Int)
(declare-fun x_73 () Int)
(declare-fun x_74 () Int)
(declare-fun x_75 () Int)
(declare-fun x_76 () Int)
(declare-fun x_77 () Int)
(declare-fun x_78 () Int)
(declare-fun x_79 () (Array Int Int))
(declare-fun x_80 () Int)
(declare-fun x_81 () Bool)
(declare-fun x_82 () Int)
(declare-fun x_83 () Int)
(declare-fun x_84 () Int)
(declare-fun x_85 () Int)
(declare-fun x_86 () Int)
(declare-fun x_87 () Int)
(declare-fun x_88 () Int)
(declare-fun x_89 () Int)
(declare-fun x_90 () Int)
(declare-fun x_91 () Int)
(declare-fun x_92 () (Array Int Int))
(declare-fun x_93 () Int)
(declare-fun x_94 () Bool)
(declare-fun x_95 () Int)
(declare-fun x_96 () Int)
(declare-fun x_97 () Int)
(declare-fun x_98 () Int)
(declare-fun x_99 () Int)
(declare-fun x_100 () Int)
(declare-fun x_101 () Int)
(declare-fun x_102 () Int)
(declare-fun x_103 () Int)
(declare-fun x_104 () Int)
(declare-fun x_105 () (Array Int Int))
(declare-fun x_106 () Int)
(declare-fun x_107 () Bool)
(declare-fun x_108 () Int)
(declare-fun x_109 () Int)
(declare-fun x_110 () Int)
(declare-fun x_111 () Int)
(declare-fun x_112 () Int)
(declare-fun x_113 () Int)
(declare-fun x_114 () Int)
(declare-fun x_115 () Int)
(declare-fun x_116 () Int)
(declare-fun x_117 () Int)
(declare-fun x_118 () (Array Int Int))
(declare-fun x_119 () Int)
(declare-fun x_120 () Bool)
(declare-fun x_121 () Int)
(declare-fun x_122 () Int)
(declare-fun x_123 () Int)
(declare-fun x_124 () Int)
(declare-fun x_125 () Int)
(declare-fun x_126 () Int)
(declare-fun x_127 () Int)
(declare-fun x_128 () Int)
(declare-fun x_129 () Int)
(declare-fun x_130 () Int)
(declare-fun x_131 () (Array Int Int))
(declare-fun x_132 () Int)
(declare-fun x_133 () Bool)
(declare-fun x_134 () Int)
(declare-fun x_135 () Int)
(declare-fun x_136 () Int)
(declare-fun x_137 () Int)
(declare-fun x_138 () Int)
(declare-fun x_139 () Int)
(declare-fun x_140 () Int)
(declare-fun x_141 () Int)
(declare-fun x_142 () Int)
(declare-fun x_143 () Int)
(declare-fun x_144 () (Array Int Int))
(declare-fun x_145 () Int)
(declare-fun x_146 () Bool)
(declare-fun x_147 () Int)
(declare-fun x_148 () Int)
(declare-fun x_149 () Int)
(declare-fun x_150 () Int)
(declare-fun x_151 () Int)
(declare-fun x_152 () Int)
(declare-fun x_153 () Int)
(declare-fun x_154 () Int)
(declare-fun x_155 () Int)
(declare-fun x_156 () Int)
(declare-fun x_157 () (Array Int Int))
(declare-fun x_158 () Int)
(declare-fun x_159 () Bool)
(declare-fun x_160 () Int)
(declare-fun x_161 () Int)
(declare-fun x_162 () Int)
(declare-fun x_163 () Int)
(declare-fun x_164 () Int)
(declare-fun x_165 () Int)
(declare-fun x_166 () Int)
(declare-fun x_167 () Int)
(declare-fun x_168 () Int)
(declare-fun x_169 () Int)
(declare-fun x_170 () (Array Int Int))
(declare-fun x_171 () Int)
(declare-fun x_172 () Bool)
(declare-fun x_173 () Int)
(declare-fun x_174 () Int)
(declare-fun x_175 () Int)
(declare-fun x_176 () Int)
(declare-fun x_177 () Int)
(declare-fun x_178 () Int)
(declare-fun x_179 () Int)
(declare-fun x_180 () Int)
(declare-fun x_181 () Int)
(declare-fun x_182 () Int)
(declare-fun x_183 () (Array Int Int))
(declare-fun x_184 () Int)
(declare-fun x_185 () Bool)
(declare-fun x_186 () Int)
(declare-fun x_187 () Int)
(declare-fun x_188 () Int)
(declare-fun x_189 () Int)
(declare-fun x_190 () Int)
(declare-fun x_191 () Int)
(declare-fun x_192 () Int)
(declare-fun x_193 () Int)
(declare-fun x_194 () Int)
(declare-fun x_195 () Int)
(declare-fun x_196 () (Array Int Int))
(declare-fun x_197 () Int)
(declare-fun x_198 () Bool)
(declare-fun x_199 () Int)
(declare-fun x_200 () Int)
(declare-fun x_201 () Int)
(declare-fun x_202 () Int)
(declare-fun x_203 () Int)
(declare-fun x_204 () Int)
(declare-fun x_205 () Int)
(declare-fun x_206 () Int)
(declare-fun x_207 () Int)
(declare-fun x_208 () Int)
(declare-fun x_209 () (Array Int Int))
(declare-fun x_210 () Int)
(declare-fun x_211 () Bool)
(declare-fun x_212 () Int)
(declare-fun x_213 () Int)
(declare-fun x_214 () Int)
(declare-fun x_215 () Int)
(declare-fun x_216 () Int)
(declare-fun x_217 () Int)
(declare-fun x_218 () Int)
(declare-fun x_219 () Int)
(declare-fun x_220 () Int)
(declare-fun x_221 () Int)
(declare-fun x_222 () (Array Int Int))
(declare-fun x_223 () Int)
(declare-fun x_224 () Bool)
(declare-fun x_225 () Int)
(declare-fun x_226 () Int)
(declare-fun x_227 () Int)
(declare-fun x_228 () Int)
(declare-fun x_229 () Int)
(declare-fun x_230 () Int)
(declare-fun x_231 () Int)
(declare-fun x_232 () Int)
(declare-fun x_233 () Int)
(declare-fun x_234 () Int)
(declare-fun x_235 () (Array Int Int))
(declare-fun x_236 () Int)
(declare-fun x_237 () Bool)
(declare-fun x_238 () Int)
(declare-fun x_239 () Int)
(declare-fun x_240 () Int)
(declare-fun x_241 () Int)
(declare-fun x_242 () Int)
(declare-fun x_243 () Int)
(declare-fun x_244 () Int)
(declare-fun x_245 () Int)
(declare-fun x_246 () Int)
(declare-fun x_247 () Int)
(declare-fun x_248 () (Array Int Int))
(declare-fun x_249 () Int)
(declare-fun x_250 () Bool)
(declare-fun x_251 () Int)
(declare-fun x_252 () Int)
(declare-fun x_253 () Int)
(declare-fun x_254 () Int)
(declare-fun x_255 () Int)
(declare-fun x_256 () Int)
(declare-fun x_257 () Int)
(declare-fun x_258 () Int)
(declare-fun x_259 () Int)
(declare-fun x_260 () Int)
(declare-fun x_261 () (Array Int Int))
(declare-fun x_262 () Int)
(declare-fun x_263 () Bool)
(declare-fun x_264 () Int)
(declare-fun x_265 () Int)
(declare-fun x_266 () Int)
(declare-fun x_267 () Int)
(declare-fun x_268 () Int)
(declare-fun x_269 () (Array Int Int))
(declare-fun x_270 () Int)
(declare-fun x_271 () Int)
(declare-fun x_272 () Int)
(declare-fun x_273 () Int)
(declare-fun x_274 () Int)
(declare-fun x_275 () Int)
(declare-fun x_276 () Int)
(declare-fun x_277 () Int)
(declare-fun x_278 () Int)
(declare-fun x_279 () Int)
(declare-fun x_280 () Int)
(declare-fun x_281 () Int)
(declare-fun x_282 () Int)
(declare-fun x_283 () Int)
(declare-fun x_284 () Int)
(declare-fun x_285 () Int)
(declare-fun x_286 () Int)
(declare-fun x_287 () Int)
(declare-fun x_288 () Int)
(declare-fun x_289 () Int)
(declare-fun x_290 () Int)
(declare-fun x_291 () Int)
(declare-fun x_292 () Int)
(declare-fun x_293 () Int)
(declare-fun x_294 () Int)
(declare-fun x_295 () Int)
(declare-fun x_296 () Int)
(declare-fun x_297 () Int)
(declare-fun x_298 () Int)
(declare-fun x_299 () Int)
(declare-fun x_300 () Int)
(declare-fun x_301 () Int)
(declare-fun x_302 () Int)
(declare-fun x_303 () Int)
(declare-fun x_304 () Int)
(declare-fun x_305 () Int)
(declare-fun x_306 () Int)
(declare-fun x_307 () Int)
(declare-fun x_308 () Int)
(declare-fun x_309 () Int)
(declare-fun x_310 () Int)
(declare-fun x_311 () Int)
(declare-fun x_312 () Int)
(declare-fun x_313 () Int)
(declare-fun x_314 () Int)
(declare-fun x_315 () Int)
(declare-fun x_316 () Int)
(declare-fun x_317 () Int)
(declare-fun x_318 () Int)
(declare-fun x_319 () Int)
(declare-fun x_320 () Int)
(declare-fun x_321 () Int)
(declare-fun x_322 () Int)
(declare-fun x_323 () Int)
(declare-fun x_324 () Int)
(declare-fun x_325 () Int)
(declare-fun x_326 () Int)
(declare-fun x_327 () Int)
(declare-fun x_328 () Int)
(declare-fun x_329 () Int)
(declare-fun x_330 () Int)
(declare-fun x_331 () Int)
(declare-fun x_332 () Int)
(declare-fun x_333 () Int)
(declare-fun x_334 () Int)
(declare-fun x_335 () Int)
(declare-fun x_336 () Int)
(declare-fun x_337 () Int)
(declare-fun x_338 () Int)
(declare-fun x_339 () Int)
(declare-fun x_340 () Int)
(declare-fun x_341 () Int)
(declare-fun x_342 () Int)
(declare-fun x_343 () Int)
(declare-fun x_344 () Int)
(declare-fun x_345 () Int)
(declare-fun x_346 () Int)
(declare-fun x_347 () Int)
(declare-fun x_348 () Int)
(declare-fun x_349 () Int)
(declare-fun x_350 () Int)
(declare-fun x_351 () Int)
(declare-fun x_352 () Int)
(declare-fun x_353 () Int)
(declare-fun x_354 () Int)
(declare-fun x_355 () Int)
(declare-fun x_356 () Int)
(declare-fun x_357 () Int)
(declare-fun x_358 () Int)
(declare-fun x_359 () Int)
(declare-fun x_360 () Int)
(declare-fun x_361 () Int)
(declare-fun x_362 () Int)
(declare-fun x_363 () Int)
(declare-fun x_364 () Int)
(declare-fun x_365 () Int)
(declare-fun x_366 () Int)
(declare-fun x_367 () Int)
(declare-fun x_368 () Int)
(declare-fun x_369 () Int)
(declare-fun x_370 () Int)
(declare-fun x_371 () Int)
(declare-fun x_372 () Int)
(declare-fun x_373 () Int)
(declare-fun x_374 () Int)
(declare-fun x_375 () Int)
(declare-fun x_376 () Int)
(declare-fun x_377 () Int)
(declare-fun x_378 () Int)
(declare-fun x_379 () Int)
(declare-fun x_380 () Int)
(declare-fun x_381 () Int)
(declare-fun x_382 () Int)
(declare-fun x_383 () Int)
(declare-fun x_384 () Int)
(declare-fun x_385 () Int)
(declare-fun x_386 () Int)
(declare-fun x_387 () Int)
(declare-fun x_388 () Int)
(declare-fun x_389 () Int)
(assert (let ((?v_93 (= x_24 x_21)) (?v_90 (= x_25 x_22)) (?v_91 (= x_26 x_27)) (?v_94 (= x_28 x_29)) (?v_92 (not (<= x_29 x_22))) (?v_88 (= x_40 x_24)) (?v_85 (= x_41 x_25)) (?v_86 (= x_42 x_26)) (?v_89 (= x_43 x_28)) (?v_87 (not (<= x_28 x_25))) (?v_83 (= x_53 x_40)) (?v_80 (= x_54 x_41)) (?v_81 (= x_55 x_42)) (?v_84 (= x_56 x_43)) (?v_82 (not (<= x_43 x_41))) (?v_78 (= x_66 x_53)) (?v_75 (= x_67 x_54)) (?v_76 (= x_68 x_55)) (?v_79 (= x_69 x_56)) (?v_77 (not (<= x_56 x_54))) (?v_73 (= x_79 x_66)) (?v_70 (= x_80 x_67)) (?v_71 (= x_81 x_68)) (?v_74 (= x_82 x_69)) (?v_72 (not (<= x_69 x_67))) (?v_68 (= x_92 x_79)) (?v_65 (= x_93 x_80)) (?v_66 (= x_94 x_81)) (?v_69 (= x_95 x_82)) (?v_67 (not (<= x_82 x_80))) (?v_63 (= x_105 x_92)) (?v_60 (= x_106 x_93)) (?v_61 (= x_107 x_94)) (?v_64 (= x_108 x_95)) (?v_62 (not (<= x_95 x_93))) (?v_58 (= x_118 x_105)) (?v_55 (= x_119 x_106)) (?v_56 (= x_120 x_107)) (?v_59 (= x_121 x_108)) (?v_57 (not (<= x_108 x_106))) (?v_53 (= x_131 x_118)) (?v_50 (= x_132 x_119)) (?v_51 (= x_133 x_120)) (?v_54 (= x_134 x_121)) (?v_52 (not (<= x_121 x_119))) (?v_48 (= x_144 x_131)) (?v_45 (= x_145 x_132)) (?v_46 (= x_146 x_133)) (?v_49 (= x_147 x_134)) (?v_47 (not (<= x_134 x_132))) (?v_43 (= x_157 x_144)) (?v_40 (= x_158 x_145)) (?v_41 (= x_159 x_146)) (?v_44 (= x_160 x_147)) (?v_42 (not (<= x_147 x_145))) (?v_38 (= x_170 x_157)) (?v_35 (= x_171 x_158)) (?v_36 (= x_172 x_159)) (?v_39 (= x_173 x_160)) (?v_37 (not (<= x_160 x_158))) (?v_33 (= x_183 x_170)) (?v_30 (= x_184 x_171)) (?v_31 (= x_185 x_172)) (?v_34 (= x_186 x_173)) (?v_32 (not (<= x_173 x_171))) (?v_28 (= x_196 x_183)) (?v_25 (= x_197 x_184)) (?v_26 (= x_198 x_185)) (?v_29 (= x_199 x_186)) (?v_27 (not (<= x_186 x_184))) (?v_23 (= x_209 x_196)) (?v_20 (= x_210 x_197)) (?v_21 (= x_211 x_198)) (?v_24 (= x_212 x_199)) (?v_22 (not (<= x_199 x_197))) (?v_18 (= x_222 x_209)) (?v_15 (= x_223 x_210)) (?v_16 (= x_224 x_211)) (?v_19 (= x_225 x_212)) (?v_17 (not (<= x_212 x_210))) (?v_13 (= x_235 x_222)) (?v_10 (= x_236 x_223)) (?v_11 (= x_237 x_224)) (?v_14 (= x_238 x_225)) (?v_12 (not (<= x_225 x_223))) (?v_8 (= x_248 x_235)) (?v_5 (= x_249 x_236)) (?v_6 (= x_250 x_237)) (?v_9 (= x_251 x_238)) (?v_7 (not (<= x_238 x_236))) (?v_3 (= x_261 x_248)) (?v_0 (= x_262 x_249)) (?v_1 (= x_263 x_250)) (?v_4 (= x_264 x_251)) (?v_2 (not (<= x_251 x_249)))) (and (and (and (and (and (and (and (and (and (and (and (and (and (and (and (and (and (and (and (and (and (and (and (and (and (and (and (and (and (and (and (and (and (and (and (and (and (and (and (and (and (and (and (and (and (and (and (and (and (and (and (and (and (and (and (and (and (and (and (and (and (and (and (and (and (and (and (and (and (and (and (and (and (and (and (and (and (and (and (and (and (and (and (and (and (and (and (and (and (and (and (and (and (and (and (and (and (and (and (and (and (and (and (and (and (and (and (and (and (and (and (and (and (and (and (and (and (and (and (and (and (and (and (and (and (and (and (and (and (and (and (and (and (and (and (and (and (and (and (and (and (and (and (and (and (and (and (and (and (and (and (and (and (and (and (and (and (and (and (and (and (and (and (and (and (and (and (and (and (and (and (and (and (and (and (and (and (and (and (and (and (and (and (and (and (and (and (and (and (and (and (and (and (and (not (= x_2 x_1)) (= x_274 (select x_20 x_1))) (= x_275 (select x_20 x_2))) (or (not (= x_274 3)) (not (= x_275 3)))) (= x_276 (select x_19 x_1))) (= x_277 (select x_19 x_2))) (or (not (= x_276 3)) (not (= x_277 3)))) (= x_278 (select x_18 x_1))) (= x_279 (select x_18 x_2))) (or (not (= x_278 3)) (not (= x_279 3)))) (= x_280 (select x_17 x_1))) (= x_281 (select x_17 x_2))) (or (not (= x_280 3)) (not (= x_281 3)))) (= x_282 (select x_16 x_1))) (= x_283 (select x_16 x_2))) (or (not (= x_282 3)) (not (= x_283 3)))) (= x_284 (select x_15 x_1))) (= x_285 (select x_15 x_2))) (or (not (= x_284 3)) (not (= x_285 3)))) (= x_286 (select x_14 x_1))) (= x_287 (select x_14 x_2))) (or (not (= x_286 3)) (not (= x_287 3)))) (= x_288 (select x_13 x_1))) (= x_289 (select x_13 x_2))) (or (not (= x_288 3)) (not (= x_289 3)))) (= x_290 (select x_12 x_1))) (= x_291 (select x_12 x_2))) (or (not (= x_290 3)) (not (= x_291 3)))) (= x_292 (select x_11 x_1))) (= x_293 (select x_11 x_2))) (or (not (= x_292 3)) (not (= x_293 3)))) (= x_294 (select x_10 x_1))) (= x_295 (select x_10 x_2))) (or (not (= x_294 3)) (not (= x_295 3)))) (= x_296 (select x_9 x_1))) (= x_297 (select x_9 x_2))) (or (not (= x_296 3)) (not (= x_297 3)))) (= x_298 (select x_8 x_1))) (= x_299 (select x_8 x_2))) (or (not (= x_298 3)) (not (= x_299 3)))) (= x_300 (select x_7 x_1))) (= x_301 (select x_7 x_2))) (or (not (= x_300 3)) (not (= x_301 3)))) (= x_302 (select x_6 x_1))) (= x_303 (select x_6 x_2))) (or (not (= x_302 3)) (not (= x_303 3)))) (= x_304 (select x_5 x_1))) (= x_305 (select x_5 x_2))) (or (not (= x_304 3)) (not (= x_305 3)))) (= x_306 (select x_4 x_1))) (= x_307 (select x_4 x_2))) (or (not (= x_306 3)) (not (= x_307 3)))) (= x_308 (select x_3 x_1))) (= x_309 (select x_3 x_2))) (or (not (= x_308 3)) (not (= x_309 3)))) (= x_310 (select x_0 x_1))) (= x_311 (select x_0 x_2))) (or (not (= x_310 3)) (not (= x_311 3)))) (= x_312 (select x_21 x_22))) (= x_23 x_312)) (= x_313 (select x_24 x_25))) (= x_39 x_313)) (= x_314 (select x_40 x_41))) (= x_52 x_314)) (= x_315 (select x_53 x_54))) (= x_65 x_315)) (= x_316 (select x_66 x_67))) (= x_78 x_316)) (= x_317 (select x_79 x_80))) (= x_91 x_317)) (= x_318 (select x_92 x_93))) (= x_104 x_318)) (= x_319 (select x_105 x_106))) (= x_117 x_319)) (= x_320 (select x_118 x_119))) (= x_130 x_320)) (= x_321 (select x_131 x_132))) (= x_143 x_321)) (= x_322 (select x_144 x_145))) (= x_156 x_322)) (= x_323 (select x_157 x_158))) (= x_169 x_323)) (= x_324 (select x_170 x_171))) (= x_182 x_324)) (= x_325 (select x_183 x_184))) (= x_195 x_325)) (= x_326 (select x_196 x_197))) (= x_208 x_326)) (= x_327 (select x_209 x_210))) (= x_221 x_327)) (= x_328 (select x_222 x_223))) (= x_234 x_328)) (= x_329 (select x_235 x_236))) (= x_247 x_329)) (= x_330 (select x_248 x_249))) (= x_260 x_330)) (= x_265 (+ x_252 1))) (= x_331 (select x_20 x_267))) (= x_332 (select x_20 x_270))) (= x_333 (select x_20 x_272))) (or (or (or (and (and (and (and (and (and (and (= x_266 0) (= x_264 (+ x_251 1))) ?v_0) ?v_1) (= x_268 x_267)) (= x_331 1)) (= x_269 (store x_20 x_267 2))) (= x_261 (store x_248 x_251 x_267))) (and (and (and (and (and (and (and (and (and (= x_266 1) ?v_2) ?v_0) ?v_1) ?v_3) ?v_4) (= x_271 x_270)) (= x_332 2)) (= x_260 x_270)) (= x_269 (store x_20 x_270 3)))) (and (and (and (and (and (and (and (and (and (= x_266 2) ?v_2) (= x_262 (+ x_249 1))) ?v_1) ?v_3) ?v_4) (= x_273 x_272)) (= x_333 3)) (or (not (<= x_252 12)) (= x_260 x_272))) (= x_269 (store x_20 x_272 1)))) (and (and (and (and (and (= x_266 3) ?v_3) ?v_0) ?v_1) (= x_269 x_20)) ?v_4))) (= x_252 (+ x_239 1))) (= x_334 (select x_19 x_254))) (= x_335 (select x_19 x_256))) (= x_336 (select x_19 x_258))) (or (or (or (and (and (and (and (and (and (and (= x_253 0) (= x_251 (+ x_238 1))) ?v_5) ?v_6) (= x_255 x_254)) (= x_334 1)) (= x_20 (store x_19 x_254 2))) (= x_248 (store x_235 x_238 x_254))) (and (and (and (and (and (and (and (and (and (= x_253 1) ?v_7) ?v_5) ?v_6) ?v_8) ?v_9) (= x_257 x_256)) (= x_335 2)) (= x_247 x_256)) (= x_20 (store x_19 x_256 3)))) (and (and (and (and (and (and (and (and (and (= x_253 2) ?v_7) (= x_249 (+ x_236 1))) ?v_6) ?v_8) ?v_9) (= x_259 x_258)) (= x_336 3)) (or (not (<= x_239 12)) (= x_247 x_258))) (= x_20 (store x_19 x_258 1)))) (and (and (and (and (and (= x_253 3) ?v_8) ?v_5) ?v_6) (= x_20 x_19)) ?v_9))) (= x_239 (+ x_226 1))) (= x_337 (select x_18 x_241))) (= x_338 (select x_18 x_243))) (= x_339 (select x_18 x_245))) (or (or (or (and (and (and (and (and (and (and (= x_240 0) (= x_238 (+ x_225 1))) ?v_10) ?v_11) (= x_242 x_241)) (= x_337 1)) (= x_19 (store x_18 x_241 2))) (= x_235 (store x_222 x_225 x_241))) (and (and (and (and (and (and (and (and (and (= x_240 1) ?v_12) ?v_10) ?v_11) ?v_13) ?v_14) (= x_244 x_243)) (= x_338 2)) (= x_234 x_243)) (= x_19 (store x_18 x_243 3)))) (and (and (and (and (and (and (and (and (and (= x_240 2) ?v_12) (= x_236 (+ x_223 1))) ?v_11) ?v_13) ?v_14) (= x_246 x_245)) (= x_339 3)) (or (not (<= x_226 12)) (= x_234 x_245))) (= x_19 (store x_18 x_245 1)))) (and (and (and (and (and (= x_240 3) ?v_13) ?v_10) ?v_11) (= x_19 x_18)) ?v_14))) (= x_226 (+ x_213 1))) (= x_340 (select x_17 x_228))) (= x_341 (select x_17 x_230))) (= x_342 (select x_17 x_232))) (or (or (or (and (and (and (and (and (and (and (= x_227 0) (= x_225 (+ x_212 1))) ?v_15) ?v_16) (= x_229 x_228)) (= x_340 1)) (= x_18 (store x_17 x_228 2))) (= x_222 (store x_209 x_212 x_228))) (and (and (and (and (and (and (and (and (and (= x_227 1) ?v_17) ?v_15) ?v_16) ?v_18) ?v_19) (= x_231 x_230)) (= x_341 2)) (= x_221 x_230)) (= x_18 (store x_17 x_230 3)))) (and (and (and (and (and (and (and (and (and (= x_227 2) ?v_17) (= x_223 (+ x_210 1))) ?v_16) ?v_18) ?v_19) (= x_233 x_232)) (= x_342 3)) (or (not (<= x_213 12)) (= x_221 x_232))) (= x_18 (store x_17 x_232 1)))) (and (and (and (and (and (= x_227 3) ?v_18) ?v_15) ?v_16) (= x_18 x_17)) ?v_19))) (= x_213 (+ x_200 1))) (= x_343 (select x_16 x_215))) (= x_344 (select x_16 x_217))) (= x_345 (select x_16 x_219))) (or (or (or (and (and (and (and (and (and (and (= x_214 0) (= x_212 (+ x_199 1))) ?v_20) ?v_21) (= x_216 x_215)) (= x_343 1)) (= x_17 (store x_16 x_215 2))) (= x_209 (store x_196 x_199 x_215))) (and (and (and (and (and (and (and (and (and (= x_214 1) ?v_22) ?v_20) ?v_21) ?v_23) ?v_24) (= x_218 x_217)) (= x_344 2)) (= x_208 x_217)) (= x_17 (store x_16 x_217 3)))) (and (and (and (and (and (and (and (and (and (= x_214 2) ?v_22) (= x_210 (+ x_197 1))) ?v_21) ?v_23) ?v_24) (= x_220 x_219)) (= x_345 3)) (or (not (<= x_200 12)) (= x_208 x_219))) (= x_17 (store x_16 x_219 1)))) (and (and (and (and (and (= x_214 3) ?v_23) ?v_20) ?v_21) (= x_17 x_16)) ?v_24))) (= x_200 (+ x_187 1))) (= x_346 (select x_15 x_202))) (= x_347 (select x_15 x_204))) (= x_348 (select x_15 x_206))) (or (or (or (and (and (and (and (and (and (and (= x_201 0) (= x_199 (+ x_186 1))) ?v_25) ?v_26) (= x_203 x_202)) (= x_346 1)) (= x_16 (store x_15 x_202 2))) (= x_196 (store x_183 x_186 x_202))) (and (and (and (and (and (and (and (and (and (= x_201 1) ?v_27) ?v_25) ?v_26) ?v_28) ?v_29) (= x_205 x_204)) (= x_347 2)) (= x_195 x_204)) (= x_16 (store x_15 x_204 3)))) (and (and (and (and (and (and (and (and (and (= x_201 2) ?v_27) (= x_197 (+ x_184 1))) ?v_26) ?v_28) ?v_29) (= x_207 x_206)) (= x_348 3)) (or (not (<= x_187 12)) (= x_195 x_206))) (= x_16 (store x_15 x_206 1)))) (and (and (and (and (and (= x_201 3) ?v_28) ?v_25) ?v_26) (= x_16 x_15)) ?v_29))) (= x_187 (+ x_174 1))) (= x_349 (select x_14 x_189))) (= x_350 (select x_14 x_191))) (= x_351 (select x_14 x_193))) (or (or (or (and (and (and (and (and (and (and (= x_188 0) (= x_186 (+ x_173 1))) ?v_30) ?v_31) (= x_190 x_189)) (= x_349 1)) (= x_15 (store x_14 x_189 2))) (= x_183 (store x_170 x_173 x_189))) (and (and (and (and (and (and (and (and (and (= x_188 1) ?v_32) ?v_30) ?v_31) ?v_33) ?v_34) (= x_192 x_191)) (= x_350 2)) (= x_182 x_191)) (= x_15 (store x_14 x_191 3)))) (and (and (and (and (and (and (and (and (and (= x_188 2) ?v_32) (= x_184 (+ x_171 1))) ?v_31) ?v_33) ?v_34) (= x_194 x_193)) (= x_351 3)) (or (not (<= x_174 12)) (= x_182 x_193))) (= x_15 (store x_14 x_193 1)))) (and (and (and (and (and (= x_188 3) ?v_33) ?v_30) ?v_31) (= x_15 x_14)) ?v_34))) (= x_174 (+ x_161 1))) (= x_352 (select x_13 x_176))) (= x_353 (select x_13 x_178))) (= x_354 (select x_13 x_180))) (or (or (or (and (and (and (and (and (and (and (= x_175 0) (= x_173 (+ x_160 1))) ?v_35) ?v_36) (= x_177 x_176)) (= x_352 1)) (= x_14 (store x_13 x_176 2))) (= x_170 (store x_157 x_160 x_176))) (and (and (and (and (and (and (and (and (and (= x_175 1) ?v_37) ?v_35) ?v_36) ?v_38) ?v_39) (= x_179 x_178)) (= x_353 2)) (= x_169 x_178)) (= x_14 (store x_13 x_178 3)))) (and (and (and (and (and (and (and (and (and (= x_175 2) ?v_37) (= x_171 (+ x_158 1))) ?v_36) ?v_38) ?v_39) (= x_181 x_180)) (= x_354 3)) (or (not (<= x_161 12)) (= x_169 x_180))) (= x_14 (store x_13 x_180 1)))) (and (and (and (and (and (= x_175 3) ?v_38) ?v_35) ?v_36) (= x_14 x_13)) ?v_39))) (= x_161 (+ x_148 1))) (= x_355 (select x_12 x_163))) (= x_356 (select x_12 x_165))) (= x_357 (select x_12 x_167))) (or (or (or (and (and (and (and (and (and (and (= x_162 0) (= x_160 (+ x_147 1))) ?v_40) ?v_41) (= x_164 x_163)) (= x_355 1)) (= x_13 (store x_12 x_163 2))) (= x_157 (store x_144 x_147 x_163))) (and (and (and (and (and (and (and (and (and (= x_162 1) ?v_42) ?v_40) ?v_41) ?v_43) ?v_44) (= x_166 x_165)) (= x_356 2)) (= x_156 x_165)) (= x_13 (store x_12 x_165 3)))) (and (and (and (and (and (and (and (and (and (= x_162 2) ?v_42) (= x_158 (+ x_145 1))) ?v_41) ?v_43) ?v_44) (= x_168 x_167)) (= x_357 3)) (or (not (<= x_148 12)) (= x_156 x_167))) (= x_13 (store x_12 x_167 1)))) (and (and (and (and (and (= x_162 3) ?v_43) ?v_40) ?v_41) (= x_13 x_12)) ?v_44))) (= x_148 (+ x_135 1))) (= x_358 (select x_11 x_150))) (= x_359 (select x_11 x_152))) (= x_360 (select x_11 x_154))) (or (or (or (and (and (and (and (and (and (and (= x_149 0) (= x_147 (+ x_134 1))) ?v_45) ?v_46) (= x_151 x_150)) (= x_358 1)) (= x_12 (store x_11 x_150 2))) (= x_144 (store x_131 x_134 x_150))) (and (and (and (and (and (and (and (and (and (= x_149 1) ?v_47) ?v_45) ?v_46) ?v_48) ?v_49) (= x_153 x_152)) (= x_359 2)) (= x_143 x_152)) (= x_12 (store x_11 x_152 3)))) (and (and (and (and (and (and (and (and (and (= x_149 2) ?v_47) (= x_145 (+ x_132 1))) ?v_46) ?v_48) ?v_49) (= x_155 x_154)) (= x_360 3)) (or (not (<= x_135 12)) (= x_143 x_154))) (= x_12 (store x_11 x_154 1)))) (and (and (and (and (and (= x_149 3) ?v_48) ?v_45) ?v_46) (= x_12 x_11)) ?v_49))) (= x_135 (+ x_122 1))) (= x_361 (select x_10 x_137))) (= x_362 (select x_10 x_139))) (= x_363 (select x_10 x_141))) (or (or (or (and (and (and (and (and (and (and (= x_136 0) (= x_134 (+ x_121 1))) ?v_50) ?v_51) (= x_138 x_137)) (= x_361 1)) (= x_11 (store x_10 x_137 2))) (= x_131 (store x_118 x_121 x_137))) (and (and (and (and (and (and (and (and (and (= x_136 1) ?v_52) ?v_50) ?v_51) ?v_53) ?v_54) (= x_140 x_139)) (= x_362 2)) (= x_130 x_139)) (= x_11 (store x_10 x_139 3)))) (and (and (and (and (and (and (and (and (and (= x_136 2) ?v_52) (= x_132 (+ x_119 1))) ?v_51) ?v_53) ?v_54) (= x_142 x_141)) (= x_363 3)) (or (not (<= x_122 12)) (= x_130 x_141))) (= x_11 (store x_10 x_141 1)))) (and (and (and (and (and (= x_136 3) ?v_53) ?v_50) ?v_51) (= x_11 x_10)) ?v_54))) (= x_122 (+ x_109 1))) (= x_364 (select x_9 x_124))) (= x_365 (select x_9 x_126))) (= x_366 (select x_9 x_128))) (or (or (or (and (and (and (and (and (and (and (= x_123 0) (= x_121 (+ x_108 1))) ?v_55) ?v_56) (= x_125 x_124)) (= x_364 1)) (= x_10 (store x_9 x_124 2))) (= x_118 (store x_105 x_108 x_124))) (and (and (and (and (and (and (and (and (and (= x_123 1) ?v_57) ?v_55) ?v_56) ?v_58) ?v_59) (= x_127 x_126)) (= x_365 2)) (= x_117 x_126)) (= x_10 (store x_9 x_126 3)))) (and (and (and (and (and (and (and (and (and (= x_123 2) ?v_57) (= x_119 (+ x_106 1))) ?v_56) ?v_58) ?v_59) (= x_129 x_128)) (= x_366 3)) (or (not (<= x_109 12)) (= x_117 x_128))) (= x_10 (store x_9 x_128 1)))) (and (and (and (and (and (= x_123 3) ?v_58) ?v_55) ?v_56) (= x_10 x_9)) ?v_59))) (= x_109 (+ x_96 1))) (= x_367 (select x_8 x_111))) (= x_368 (select x_8 x_113))) (= x_369 (select x_8 x_115))) (or (or (or (and (and (and (and (and (and (and (= x_110 0) (= x_108 (+ x_95 1))) ?v_60) ?v_61) (= x_112 x_111)) (= x_367 1)) (= x_9 (store x_8 x_111 2))) (= x_105 (store x_92 x_95 x_111))) (and (and (and (and (and (and (and (and (and (= x_110 1) ?v_62) ?v_60) ?v_61) ?v_63) ?v_64) (= x_114 x_113)) (= x_368 2)) (= x_104 x_113)) (= x_9 (store x_8 x_113 3)))) (and (and (and (and (and (and (and (and (and (= x_110 2) ?v_62) (= x_106 (+ x_93 1))) ?v_61) ?v_63) ?v_64) (= x_116 x_115)) (= x_369 3)) (or (not (<= x_96 12)) (= x_104 x_115))) (= x_9 (store x_8 x_115 1)))) (and (and (and (and (and (= x_110 3) ?v_63) ?v_60) ?v_61) (= x_9 x_8)) ?v_64))) (= x_96 (+ x_83 1))) (= x_370 (select x_7 x_98))) (= x_371 (select x_7 x_100))) (= x_372 (select x_7 x_102))) (or (or (or (and (and (and (and (and (and (and (= x_97 0) (= x_95 (+ x_82 1))) ?v_65) ?v_66) (= x_99 x_98)) (= x_370 1)) (= x_8 (store x_7 x_98 2))) (= x_92 (store x_79 x_82 x_98))) (and (and (and (and (and (and (and (and (and (= x_97 1) ?v_67) ?v_65) ?v_66) ?v_68) ?v_69) (= x_101 x_100)) (= x_371 2)) (= x_91 x_100)) (= x_8 (store x_7 x_100 3)))) (and (and (and (and (and (and (and (and (and (= x_97 2) ?v_67) (= x_93 (+ x_80 1))) ?v_66) ?v_68) ?v_69) (= x_103 x_102)) (= x_372 3)) (or (not (<= x_83 12)) (= x_91 x_102))) (= x_8 (store x_7 x_102 1)))) (and (and (and (and (and (= x_97 3) ?v_68) ?v_65) ?v_66) (= x_8 x_7)) ?v_69))) (= x_83 (+ x_70 1))) (= x_373 (select x_6 x_85))) (= x_374 (select x_6 x_87))) (= x_375 (select x_6 x_89))) (or (or (or (and (and (and (and (and (and (and (= x_84 0) (= x_82 (+ x_69 1))) ?v_70) ?v_71) (= x_86 x_85)) (= x_373 1)) (= x_7 (store x_6 x_85 2))) (= x_79 (store x_66 x_69 x_85))) (and (and (and (and (and (and (and (and (and (= x_84 1) ?v_72) ?v_70) ?v_71) ?v_73) ?v_74) (= x_88 x_87)) (= x_374 2)) (= x_78 x_87)) (= x_7 (store x_6 x_87 3)))) (and (and (and (and (and (and (and (and (and (= x_84 2) ?v_72) (= x_80 (+ x_67 1))) ?v_71) ?v_73) ?v_74) (= x_90 x_89)) (= x_375 3)) (or (not (<= x_70 12)) (= x_78 x_89))) (= x_7 (store x_6 x_89 1)))) (and (and (and (and (and (= x_84 3) ?v_73) ?v_70) ?v_71) (= x_7 x_6)) ?v_74))) (= x_70 (+ x_57 1))) (= x_376 (select x_5 x_72))) (= x_377 (select x_5 x_74))) (= x_378 (select x_5 x_76))) (or (or (or (and (and (and (and (and (and (and (= x_71 0) (= x_69 (+ x_56 1))) ?v_75) ?v_76) (= x_73 x_72)) (= x_376 1)) (= x_6 (store x_5 x_72 2))) (= x_66 (store x_53 x_56 x_72))) (and (and (and (and (and (and (and (and (and (= x_71 1) ?v_77) ?v_75) ?v_76) ?v_78) ?v_79) (= x_75 x_74)) (= x_377 2)) (= x_65 x_74)) (= x_6 (store x_5 x_74 3)))) (and (and (and (and (and (and (and (and (and (= x_71 2) ?v_77) (= x_67 (+ x_54 1))) ?v_76) ?v_78) ?v_79) (= x_77 x_76)) (= x_378 3)) (or (not (<= x_57 12)) (= x_65 x_76))) (= x_6 (store x_5 x_76 1)))) (and (and (and (and (and (= x_71 3) ?v_78) ?v_75) ?v_76) (= x_6 x_5)) ?v_79))) (= x_57 (+ x_44 1))) (= x_379 (select x_4 x_59))) (= x_380 (select x_4 x_61))) (= x_381 (select x_4 x_63))) (or (or (or (and (and (and (and (and (and (and (= x_58 0) (= x_56 (+ x_43 1))) ?v_80) ?v_81) (= x_60 x_59)) (= x_379 1)) (= x_5 (store x_4 x_59 2))) (= x_53 (store x_40 x_43 x_59))) (and (and (and (and (and (and (and (and (and (= x_58 1) ?v_82) ?v_80) ?v_81) ?v_83) ?v_84) (= x_62 x_61)) (= x_380 2)) (= x_52 x_61)) (= x_5 (store x_4 x_61 3)))) (and (and (and (and (and (and (and (and (and (= x_58 2) ?v_82) (= x_54 (+ x_41 1))) ?v_81) ?v_83) ?v_84) (= x_64 x_63)) (= x_381 3)) (or (not (<= x_44 12)) (= x_52 x_63))) (= x_5 (store x_4 x_63 1)))) (and (and (and (and (and (= x_58 3) ?v_83) ?v_80) ?v_81) (= x_5 x_4)) ?v_84))) (= x_44 (+ x_30 1))) (= x_382 (select x_3 x_46))) (= x_383 (select x_3 x_48))) (= x_384 (select x_3 x_50))) (or (or (or (and (and (and (and (and (and (and (= x_45 0) (= x_43 (+ x_28 1))) ?v_85) ?v_86) (= x_47 x_46)) (= x_382 1)) (= x_4 (store x_3 x_46 2))) (= x_40 (store x_24 x_28 x_46))) (and (and (and (and (and (and (and (and (and (= x_45 1) ?v_87) ?v_85) ?v_86) ?v_88) ?v_89) (= x_49 x_48)) (= x_383 2)) (= x_39 x_48)) (= x_4 (store x_3 x_48 3)))) (and (and (and (and (and (and (and (and (and (= x_45 2) ?v_87) (= x_41 (+ x_25 1))) ?v_86) ?v_88) ?v_89) (= x_51 x_50)) (= x_384 3)) (or (not (<= x_30 12)) (= x_39 x_50))) (= x_4 (store x_3 x_50 1)))) (and (and (and (and (and (= x_45 3) ?v_88) ?v_85) ?v_86) (= x_4 x_3)) ?v_89))) (= x_30 (+ x_31 1))) (= x_385 (select x_0 x_33))) (= x_386 (select x_0 x_35))) (= x_387 (select x_0 x_37))) (or (or (or (and (and (and (and (and (and (and (= x_32 0) (= x_28 (+ x_29 1))) ?v_90) ?v_91) (= x_34 x_33)) (= x_385 1)) (= x_3 (store x_0 x_33 2))) (= x_24 (store x_21 x_29 x_33))) (and (and (and (and (and (and (and (and (and (= x_32 1) ?v_92) ?v_90) ?v_91) ?v_93) ?v_94) (= x_36 x_35)) (= x_386 2)) (= x_23 x_35)) (= x_3 (store x_0 x_35 3)))) (and (and (and (and (and (and (and (and (and (= x_32 2) ?v_92) (= x_25 (+ x_22 1))) ?v_91) ?v_93) ?v_94) (= x_38 x_37)) (= x_387 3)) (or (not (<= x_31 12)) (= x_23 x_37))) (= x_3 (store x_0 x_37 1)))) (and (and (and (and (and (= x_32 3) ?v_93) ?v_90) ?v_91) (= x_3 x_0)) ?v_94))) (= x_388 (select x_269 x_1))) (= x_388 3)) (= x_389 (select x_269 x_2))) (= x_389 3))))
; --- Injected Array Sum Constraint ---
(assert (sum x_0 (+ x_286 (+ x_139 x_175))))
(check-sat)
(exit)